c 
c MolecularSimulation 0.9.3
c Simulation written: Jan 13 2012 -- 15:17:57
c Test: Distribution
c Input: ./data/testCNF/SWEEP_R4_K3_N20_M76_S000.cnf
c 
s SATISFIABLE
v 1 2 3 4 5 -6 7 -8 -9 10 -11 12 -13 -14 -15 -16 -17 -18 -19 20 0
c algorithmTime:  306
c solutionMemory: 223
c mixCount:       225
c extractCount:   0
c appendCount:    5151338
c splitCount:     225
c spliceCount:    2352464
c purifyCount:    75
c 
